(set-logic ALL)
(set-option :fmf-bound true)
(set-option :produce-models true)
(declare-sort Object 0)

(declare-fun var142 (Bool) Bool)
(declare-fun var193 (Bool) Bool)
(declare-fun var113 (Bool) Bool)
(declare-fun var19 (Bool) Bool)
(declare-fun var165 (Bool) Bool)
(declare-fun var187 (Bool) Bool)
(declare-fun var120 (Bool) Bool)
(declare-fun var101 (Bool) Bool)
(declare-fun var109 (Bool) Bool)
(declare-fun var200 (Bool) Bool)
(declare-fun var40 (Bool) Bool)
(declare-fun var155 (Bool) Bool)
(declare-fun var5 (Bool) Bool)
(declare-fun var168 (Bool) Bool)
(declare-fun var199 (Bool) Bool)
(declare-fun var63 (Bool) Bool)
(declare-fun var29 (Bool) Bool)
(declare-fun var177 (Bool) Bool)
(declare-fun var164 (Bool) Bool)
(declare-fun var151 (Bool) Bool)
(declare-fun var198 (Bool) Bool)
(declare-fun var88 (Bool) Bool)
(declare-fun var191 (Bool) Bool)
(declare-fun var161 (Bool) Bool)
(declare-fun var160 (Bool) Bool)
(declare-fun var52 (Bool) Bool)
(declare-fun var8 (Bool) Bool)
(declare-fun var17 (Bool) Bool)
(declare-fun var50 (Bool) Bool)
(declare-fun var150 (Bool) Bool)
(declare-fun var123 (Bool) Bool)
(declare-fun var124 (Bool) Bool)
(declare-fun var163 (Bool) Bool)
(declare-fun var84 (Bool) Bool)
(declare-fun var26 (Bool) Bool)
(declare-fun var154 (Bool) Bool)
(declare-fun var102 (Bool) Bool)
(declare-fun var107 (Bool) Bool)
(declare-fun var184 (Bool) Bool)
(declare-fun var128 (Bool) Bool)
(declare-fun var55 (Bool) Bool)
(declare-fun var96 (Bool) Bool)
(declare-fun var81 (Bool) Bool)
(declare-fun var66 (Bool) Bool)
(declare-fun var68 (Bool) Bool)
(declare-fun var73 (Bool) Bool)
(declare-fun var104 (Bool) Bool)
(declare-fun var41 (Bool) Bool)
(declare-fun var118 (Bool) Bool)
(declare-fun var182 (Bool) Bool)
(declare-fun var139 (Bool) Bool)
(declare-fun var87 (Bool) Bool)
(declare-fun var75 (Bool) Bool)
(declare-fun var83 (Bool) Bool)
(declare-fun var153 (Bool) Bool)
(declare-fun var108 (Bool) Bool)
(declare-fun var53 (Bool) Bool)
(declare-fun var22 (Bool) Bool)
(declare-fun var33 (Bool) Bool)
(declare-fun var132 (Bool) Bool)
(declare-fun var25 (Bool) Bool)
(declare-fun var58 (Bool) Bool)
(declare-fun var146 (Bool) Bool)
(declare-fun var20 (Bool) Bool)
(declare-fun var16 (Bool) Bool)
(declare-fun var27 (Bool) Bool)
(declare-fun var170 (Bool) Bool)
(declare-fun var43 (Bool) Bool)
(declare-fun var32 (Bool) Bool)
(declare-fun var97 (Bool) Bool)
(declare-fun var103 (Bool) Bool)
(declare-fun var12 (Bool) Bool)
(declare-fun var116 (Bool) Bool)
(declare-fun var15 (Bool) Bool)
(declare-fun var140 (Bool) Bool)
(declare-fun var181 (Bool) Bool)
(declare-fun var64 (Bool) Bool)
(declare-fun var111 (Bool) Bool)
(declare-fun var136 (Bool) Bool)
(declare-fun var117 (Bool) Bool)
(declare-fun var158 (Bool) Bool)
(declare-fun var99 (Bool) Bool)
(declare-fun var60 (Bool) Bool)
(declare-fun var166 (Bool) Bool)
(declare-fun var62 (Bool) Bool)
(declare-fun var65 (Bool) Bool)
(declare-fun var183 (Bool) Bool)
(declare-fun var98 (Bool) Bool)
(declare-fun var122 (Bool) Bool)
(declare-fun var23 (Bool) Bool)
(declare-fun var178 (Bool) Bool)
(declare-fun var54 (Bool) Bool)
(declare-fun var31 (Bool) Bool)
(declare-fun var137 (Bool) Bool)
(declare-fun var4 (Bool) Bool)
(declare-fun var89 (Bool) Bool)
(declare-fun var85 (Bool) Bool)
(declare-fun var57 (Bool) Bool)
(declare-fun var162 (Bool) Bool)
(declare-fun var70 (Bool) Bool)
(declare-fun var195 (Bool) Bool)
(declare-fun var167 (Bool) Bool)
(declare-fun var77 (Bool) Bool)
(declare-fun var147 (Bool) Bool)
(declare-fun var78 (Bool) Bool)
(declare-fun var95 (Bool) Bool)
(declare-fun var186 (Bool) Bool)
(declare-fun var176 (Bool) Bool)
(declare-fun var130 (Bool) Bool)
(declare-fun var24 (Bool) Bool)
(declare-fun var196 (Bool) Bool)
(declare-fun var82 (Bool) Bool)
(declare-fun var59 (Bool) Bool)
(declare-fun var129 (Bool) Bool)
(declare-fun var112 (Bool) Bool)
(declare-fun var28 (Bool) Bool)
(declare-fun var189 (Bool) Bool)
(declare-fun var169 (Bool) Bool)
(declare-fun var173 (Bool) Bool)
(declare-fun var180 (Bool) Bool)
(declare-fun var80 (Bool) Bool)
(declare-fun var3 (Bool) Bool)
(declare-fun var148 (Bool) Bool)
(declare-fun var56 (Bool) Bool)
(declare-fun var71 (Bool) Bool)
(declare-fun var48 (Bool) Bool)
(declare-fun var86 (Bool) Bool)
(declare-fun var125 (Bool) Bool)
(declare-fun var18 (Bool) Bool)
(declare-fun var106 (Bool) Bool)
(declare-fun var61 (Bool) Bool)
(declare-fun var175 (Bool) Bool)
(declare-fun var127 (Bool) Bool)
(declare-fun var45 (Bool) Bool)
(declare-fun var190 (Bool) Bool)
(declare-fun var67 (Bool) Bool)
(declare-fun var38 (Bool) Bool)
(declare-fun var192 (Bool) Bool)
(declare-fun var105 (Bool) Bool)
(declare-fun var100 (Bool) Bool)
(declare-fun var37 (Bool) Bool)
(declare-fun var145 (Bool) Bool)
(declare-fun var149 (Bool) Bool)
(declare-fun var94 (Bool) Bool)
(declare-fun var185 (Bool) Bool)
(declare-fun var11 (Bool) Bool)
(declare-fun var188 (Bool) Bool)
(declare-fun var110 (Bool) Bool)
(declare-fun var2 (Bool) Bool)
(declare-fun var197 (Bool) Bool)
(declare-fun var79 (Bool) Bool)
(declare-fun var194 (Bool) Bool)
(declare-fun var121 (Bool) Bool)
(declare-fun var133 (Bool) Bool)
(declare-fun var135 (Bool) Bool)
(declare-fun var34 (Bool) Bool)
(declare-fun var9 (Bool) Bool)
(declare-fun var10 (Bool) Bool)
(declare-fun var93 (Bool) Bool)
(declare-fun var114 (Bool) Bool)
(declare-fun var30 (Bool) Bool)
(declare-fun var172 (Bool) Bool)
(declare-fun var51 (Bool) Bool)
(declare-fun var76 (Bool) Bool)
(declare-fun var13 (Bool) Bool)
(declare-fun var36 (Bool) Bool)
(declare-fun var144 (Bool) Bool)
(declare-fun var35 (Bool) Bool)
(declare-fun var90 (Bool) Bool)
(declare-fun var6 (Bool) Bool)
(declare-fun var143 (Bool) Bool)
(declare-fun var92 (Bool) Bool)
(declare-fun var115 (Bool) Bool)
(declare-fun var126 (Bool) Bool)
(declare-fun var159 (Bool) Bool)
(declare-fun var69 (Bool) Bool)
(declare-fun var119 (Bool) Bool)
(declare-fun var14 (Bool) Bool)
(declare-fun var46 (Bool) Bool)
(declare-fun var179 (Bool) Bool)
(declare-fun var47 (Bool) Bool)
(declare-fun var91 (Bool) Bool)
(declare-fun var49 (Bool) Bool)
(declare-fun var174 (Bool) Bool)
(declare-fun var156 (Bool) Bool)
(declare-fun var42 (Bool) Bool)
(declare-fun var171 (Bool) Bool)
(declare-fun var39 (Bool) Bool)
(declare-fun var72 (Bool) Bool)
(declare-fun var74 (Bool) Bool)
(declare-fun var7 (Bool) Bool)
(declare-fun var157 (Bool) Bool)
(declare-fun var21 (Bool) Bool)
(declare-fun var152 (Bool) Bool)
(declare-fun var138 (Bool) Bool)
(declare-fun var134 (Bool) Bool)
(declare-fun var131 (Bool) Bool)
(declare-fun var1 (Bool) Bool)
(declare-fun var44 (Bool) Bool)
(declare-fun var141 (Bool) Bool)
(declare-fun GTE (Bool Bool) Bool)
(define-fun implies ((p Bool)(q Bool)) Bool (or (not p) q))

(assert (forall ((x Bool)) (not(or (var142 x) (var193 x)))))
(assert (forall ((x Bool)) (not(or (var113 x) (not(var19 x))))))
(assert (forall ((x Bool)) (not(or (not(var165 x)) (not(var187 x))))))
(assert (forall ((x Bool)) (not(or (not(var120 x)) (var101 x)))))
(assert (forall ((x Bool)) (not(or (not(var109 x)) (not(var200 x))))))
(assert (forall ((x Bool)) (not(or (var40 x) (not(var155 x))))))
(assert (forall ((x Bool)) (not(or (not(var5 x)) (var168 x)))))
(assert (forall ((x Bool)) (not(or (var199 x) (var63 x)))))
(assert (forall ((x Bool)) (not(or (var29 x) (not(var177 x))))))
(assert (forall ((x Bool)) (not(or (var164 x) (var151 x)))))
(assert (forall ((x Bool)) (not(or (var198 x) (not(var88 x))))))
(assert (forall ((x Bool)) (not(or (not(var191 x)) (var161 x)))))
(assert (forall ((x Bool)) (not(or (var160 x) (var52 x)))))
(assert (forall ((x Bool)) (not(or (not(var8 x)) (var17 x)))))
(assert (forall ((x Bool)) (not(or (var50 x) (not(var150 x))))))
(assert (forall ((x Bool)) (not(or (var123 x) (var124 x)))))
(assert (forall ((x Bool)) (not(or (not(var163 x)) (not(var84 x))))))
(assert (forall ((x Bool)) (not(or (var26 x) (not(var154 x))))))
(assert (forall ((x Bool)) (not(or (not(var102 x)) (var107 x)))))
(assert (forall ((x Bool)) (not(or (not(var184 x)) (var128 x)))))
(assert (forall ((x Bool)) (not(or (var55 x) (var96 x)))))
(assert (forall ((x Bool)) (not(or (var81 x) (not(var66 x))))))
(assert (forall ((x Bool)) (not(or (var68 x) (not(var73 x))))))
(assert (forall ((x Bool)) (not(or (not(var104 x)) (not(var41 x))))))
(assert (forall ((x Bool)) (not(or (var118 x) (not(var182 x))))))
(assert (forall ((x Bool)) (not(or (var139 x) (var87 x)))))
(assert (forall ((x Bool)) (not(or (not(var75 x)) (not(var83 x))))))
(assert (forall ((x Bool)) (not(or (var153 x) (var108 x)))))
(assert (forall ((x Bool)) (not(or (var53 x) (not(var22 x))))))
(assert (forall ((x Bool)) (not(or (not(var33 x)) (var132 x)))))
(assert (forall ((x Bool)) (not(or (var25 x) (var58 x)))))
(assert (forall ((x Bool)) (not(or (not(var146 x)) (not(var20 x))))))
(assert (forall ((x Bool)) (not(or (var16 x) (not(var27 x))))))
(assert (forall ((x Bool)) (not(or (not(var170 x)) (var43 x)))))
(assert (forall ((x Bool)) (not(or (var32 x) (not(var97 x))))))
(assert (forall ((x Bool)) (not(or (var103 x) (not(var12 x))))))
(assert (forall ((x Bool)) (not(or (var116 x) (not(var15 x))))))
(assert (forall ((x Bool)) (not(or (var140 x) (var181 x)))))
(assert (forall ((x Bool)) (not(or (var64 x) (var111 x)))))
(assert (forall ((x Bool)) (not(or (var136 x) (var117 x)))))
(assert (forall ((x Bool)) (not(or (not(var158 x)) (var99 x)))))
(assert (forall ((x Bool)) (not(or (not(var60 x)) (var166 x)))))
(assert (forall ((x Bool)) (not(or (var62 x) (var65 x)))))
(assert (forall ((x Bool)) (not(or (var183 x) (var98 x)))))
(assert (forall ((x Bool)) (not(or (var122 x) (not(var23 x))))))
(assert (forall ((x Bool)) (not(or (not(var178 x)) (not(var54 x))))))
(assert (forall ((x Bool)) (not(or (var31 x) (var137 x)))))
(assert (forall ((x Bool)) (not(or (not(var4 x)) (var89 x)))))
(assert (forall ((x Bool)) (not(or (var85 x) (not(var57 x))))))
(assert (forall ((x Bool)) (not(or (var162 x) (not(var70 x))))))
(assert (forall ((x Bool))  (exists ((x1 Bool)) (and(GTE x x1)  (implies (var195 x1) (not(var167 x)))))))
(assert (forall ((x Bool))  (exists ((x1 Bool)) (and(GTE x x1)  (implies (not(var77 x1)) (not(var147 x)))))))
(assert (forall ((x Bool))  (exists ((x1 Bool)) (and(GTE x x1)  (implies (not(var78 x1)) (not(var95 x)))))))
(assert (forall ((x Bool))  (exists ((x1 Bool)) (and(GTE x x1)  (implies (not(var186 x1)) (var176 x))))))
(assert (forall ((x Bool))  (exists ((x1 Bool)) (and(GTE x x1)  (implies (not(var130 x1)) (not(var24 x)))))))
(assert (forall ((x Bool))  (exists ((x1 Bool)) (and(GTE x x1)  (implies (not(var196 x1)) (not(var82 x)))))))
(assert (forall ((x Bool))  (exists ((x1 Bool)) (and(GTE x x1)  (implies (var59 x1) (var129 x))))))
(assert (forall ((x Bool))  (exists ((x1 Bool)) (and(GTE x x1)  (implies (not(var112 x1)) (not(var28 x)))))))
(assert (forall ((x Bool))  (exists ((x1 Bool)) (and(GTE x x1)  (implies (var189 x1) (not(var169 x)))))))
(assert (forall ((x Bool))  (exists ((x1 Bool)) (and(GTE x x1)  (implies (not(var173 x1)) (not(var180 x)))))))
(assert (forall ((x Bool))  (exists ((x1 Bool)) (and(GTE x x1)  (implies (var80 x1) (not(var3 x)))))))
(assert (forall ((x Bool))  (exists ((x1 Bool)) (and(GTE x x1)  (implies (var148 x1) (not(var56 x)))))))
(assert (forall ((x Bool))  (exists ((x1 Bool)) (and(GTE x x1)  (implies (var71 x1) (not(var48 x)))))))
(assert (forall ((x Bool))  (exists ((x1 Bool)) (and(GTE x x1)  (implies (var86 x1) (var125 x))))))
(assert (forall ((x Bool))  (exists ((x1 Bool)) (and(GTE x x1)  (implies (not(var18 x1)) (var106 x))))))
(assert (forall ((x Bool))  (exists ((x1 Bool)) (and(GTE x x1)  (implies (var61 x1) (var175 x))))))
(assert (forall ((x Bool))  (exists ((x1 Bool)) (and(GTE x x1)  (implies (not(var127 x1)) (var45 x))))))
(assert (forall ((x Bool))  (exists ((x1 Bool)) (and(GTE x x1)  (implies (not(var190 x1)) (not(var67 x)))))))
(assert (forall ((x Bool))  (exists ((x1 Bool)) (and(GTE x x1)  (implies (not(var38 x1)) (var192 x))))))
(assert (forall ((x Bool))  (exists ((x1 Bool)) (and(GTE x x1)  (implies (var105 x1) (not(var100 x)))))))
(assert (forall ((x Bool))  (exists ((x1 Bool)) (and(GTE x x1)  (implies (var37 x1) (var145 x))))))
(assert (forall ((x Bool))  (exists ((x1 Bool)) (and(GTE x x1)  (implies (var149 x1) (not(var94 x)))))))
(assert (forall ((x Bool))  (exists ((x1 Bool)) (and(GTE x x1)  (implies (not(var185 x1)) (not(var11 x)))))))
(assert (forall ((x Bool))  (exists ((x1 Bool)) (and(GTE x x1)  (implies (not(var188 x1)) (var110 x))))))
(assert (forall ((x Bool))  (exists ((x1 Bool)) (and(GTE x x1)  (implies (var2 x1) (var197 x))))))
(assert (forall ((x Bool))  (exists ((x1 Bool)) (and(GTE x x1)  (implies (var79 x1) (not(var194 x)))))))
(assert (forall ((x Bool))  (exists ((x1 Bool)) (and(GTE x x1)  (implies (var121 x1) (var133 x))))))
(assert (forall ((x Bool))  (exists ((x1 Bool)) (and(GTE x x1)  (implies (var135 x1) (not(var34 x)))))))
(assert (forall ((x Bool))  (exists ((x1 Bool)) (and(GTE x x1)  (implies (var9 x1) (not(var10 x)))))))
(assert (forall ((x Bool))  (exists ((x1 Bool)) (and(GTE x x1)  (implies (var93 x1) (var114 x))))))
(assert (forall ((x Bool))  (exists ((x1 Bool)) (and(GTE x x1)  (implies (not(var30 x1)) (var172 x))))))
(assert (forall ((x Bool))  (exists ((x1 Bool)) (and(GTE x x1)  (implies (var51 x1) (not(var76 x)))))))
(assert (forall ((x Bool))  (exists ((x1 Bool)) (and(GTE x x1)  (implies (var13 x1) (not(var36 x)))))))
(assert (forall ((x Bool))  (exists ((x1 Bool)) (and(GTE x x1)  (implies (var144 x1) (var35 x))))))
(assert (forall ((x Bool))  (exists ((x1 Bool)) (and(GTE x x1)  (implies (var90 x1) (not(var6 x)))))))
(assert (forall ((x Bool))  (exists ((x1 Bool)) (and(GTE x x1)  (implies (var143 x1) (not(var92 x)))))))
(assert (forall ((x Bool))  (exists ((x1 Bool)) (and(GTE x x1)  (implies (not(var115 x1)) (var126 x))))))
(assert (forall ((x Bool))  (exists ((x1 Bool)) (and(GTE x x1)  (implies (var159 x1) (not(var69 x)))))))
(assert (forall ((x Bool))  (exists ((x1 Bool)) (and(GTE x x1)  (implies (var119 x1) (var14 x))))))
(assert (forall ((x Bool))  (exists ((x1 Bool)) (and(GTE x x1)  (implies (var46 x1) (not(var179 x)))))))
(assert (forall ((x Bool))  (exists ((x1 Bool)) (and(GTE x x1)  (implies (var47 x1) (var91 x))))))
(assert (forall ((x Bool))  (exists ((x1 Bool)) (and(GTE x x1)  (implies (not(var49 x1)) (not(var174 x)))))))
(assert (forall ((x Bool))  (exists ((x1 Bool)) (and(GTE x x1)  (implies (not(var156 x1)) (var42 x))))))
(assert (forall ((x Bool))  (exists ((x1 Bool)) (and(GTE x x1)  (implies (not(var171 x1)) (not(var39 x)))))))
(assert (forall ((x Bool))  (exists ((x1 Bool)) (and(GTE x x1)  (implies (not(var72 x1)) (var74 x))))))
(assert (forall ((x Bool))  (exists ((x1 Bool)) (and(GTE x x1)  (implies (var7 x1) (not(var157 x)))))))
(assert (forall ((x Bool))  (exists ((x1 Bool)) (and(GTE x x1)  (implies (not(var21 x1)) (not(var152 x)))))))
(assert (forall ((x Bool))  (exists ((x1 Bool)) (and(GTE x x1)  (implies (not(var138 x1)) (var134 x))))))
(assert (forall ((x Bool))  (exists ((x1 Bool)) (and(GTE x x1)  (implies (var131 x1) (not(var1 x)))))))
(assert (forall ((x Bool))  (exists ((x1 Bool)) (and(GTE x x1)  (implies (not(var44 x1)) (var141 x))))))
(check-sat)
(get-model)
